c clasp version 2.1.1
c Reading from p49.cnf
c Solving...
s SATISFIABLE

c Models        : 1+    
c Time          : 10.370s (Solving: 8.65s 1st Model: 8.65s Unsat: 0.00s)
c CPU Time      : 10.350s
c Choices       : 38491
c Conflicts     : 20331
c Restarts      : 2      (Average: 10165.50 Last: 327)

c Variables     : 234817 (Eliminated: 73556 Frozen:    0)
c Constraints   : 266590 (Binary: 64.9% Ternary: 33.8% Other:  1.3%)
c Lemmas        : 20331  (Binary:  0.0% Ternary:  0.2% Other: 99.8%)
c   Conflict    : 20331  (Average Length: 226.2) 
c   Loop        : 0      (Average Length: 0.0) 
c   Other       : 0      (Average Length: 0.0)
c   Deleted     : 4988  
